30
2
20261
458 479
false
0.25
17 44 28 31 19 27 32 49 35 26 21 2 39 12 15 39 21 6 41 26 12 17 10 28 41 16 5 18 11 22
31 9 35 49 17 24 11 47 39 40 11 14 42 38 25 3 10 37 26 40 23 37 50 3 31 22 11 35 11 19
64 55 7 50 1 20 5 51 28 7 27 47 94 86 51 22 51 72 12 15 36 31 78 73 93 94 92 64 6 83
0 83 66 0 0 0 15 0 0 76 0 0 0 0 88 0 0 0 81 78 0 0 0 42 0 93 0 86 47 0
0 0 0 0 0 0 0 0 0 97 0 0 27 0 89 0 0 0 0 0 0 60 0 0 45 38 0 0 0
0 0 0 0 0 0 15 0 0 77 0 0 0 0 0 0 67 0 0 0 0 0 18 0 0 0 0 0
0 0 0 0 55 0 0 0 36 0 0 0 0 0 20 87 0 0 0 0 0 0 0 77 6 0 0
0 0 0 0 0 0 0 0 0 0 0 0 0 45 0 0 0 0 24 0 0 0 0 0 92 0
0 0 0 1 0 0 0 0 0 0 21 0 0 0 0 0 0 0 93 0 0 0 0 0 0
0 0 0 0 94 0 0 99 40 0 0 0 0 13 26 0 0 78 45 48 0 0 0 0
0 0 0 0 51 0 0 0 0 73 22 0 0 0 46 77 0 0 0 0 0 0 32
0 0 0 0 0 0 58 0 0 0 0 12 0 0 0 0 0 0 0 0 0 0
0 0 0 0 0 0 69 0 0 0 11 0 0 40 0 79 0 0 0 0 96
0 0 0 34 0 0 0 0 23 40 47 0 0 0 0 0 0 0 25 89
0 30 66 0 0 0 0 0 98 0 46 2 0 0 0 0 0 30 0
0 70 0 96 0 82 0 0 0 0 0 0 0 0 81 14 0 0
0 0 0 39 0 0 0 51 0 0 0 89 0 0 0 44 0
0 0 0 63 14 0 0 0 0 0 63 0 0 0 0 0
0 0 19 60 0 0 73 0 0 0 0 0 0 80 98
0 2 22 0 0 0 0 0 0 0 0 0 15 0
0 0 0 0 0 0 43 0 0 0 15 0 0
0 91 0 0 0 0 100 0 0 0 0 34
0 0 0 0 34 0 0 30 0 0 0
0 0 43 0 0 26 0 17 0 0
0 0 0 0 0 0 0 0 0
0 0 0 0 26 79 0 26
0 0 0 0 0 13 0
0 24 0 20 0 94
0 26 0 92 0
0 0 0 3
0 0 0
0 5
0 0 0 63 0 0 0 0 95 0 0 0 4 0 0 0 0 19 0 0 0 0 0 0 0 0 0 0 0
0 0 0 3 70 72 0 0 0 83 0 0 55 58 0 0 0 0 0 0 30 33 0 0 0 0 0 0
0 0 0 0 0 0 0 0 0 0 0 96 50 0 0 0 0 63 0 42 0 0 99 0 28 0 41
0 0 11 0 0 0 0 0 0 0 0 0 0 11 0 0 82 32 0 0 0 87 69 94 0 0
0 0 0 19 0 0 0 74 31 0 71 58 0 0 0 0 63 0 0 64 0 88 64 0 0
0 0 0 0 0 0 0 0 0 0 0 0 0 0 17 68 0 0 0 34 0 0 0 0
0 0 0 0 0 0 0 0 88 64 52 29 0 0 0 55 49 0 0 70 0 0 0
0 81 0 0 0 31 91 0 0 0 0 0 47 23 0 0 0 0 0 0 0 0
0 87 0 0 0 0 6 0 0 0 0 0 0 0 0 0 0 0 95 0 0
0 0 0 0 0 0 0 20 7 0 85 0 33 0 0 0 0 0 0 0
0 0 0 0 0 30 0 0 0 10 0 0 40 0 43 5 0 0 0
0 66 4 0 0 50 85 0 0 0 0 0 0 0 0 0 0 0
0 0 0 0 52 98 90 0 0 13 25 0 42 0 0 0 0
0 0 0 0 19 52 0 0 0 0 0 0 0 0 0 0
0 0 0 0 0 0 0 0 0 0 0 0 0 0 15
0 0 0 0 56 55 0 0 57 97 0 2 0 0
0 0 0 0 32 0 0 8 0 0 28 0 0
0 0 0 78 0 0 0 0 79 0 0 0
0 0 0 0 0 0 0 0 0 0 0
0 16 0 0 0 0 0 98 4 0
0 0 86 0 0 0 0 0 0
0 0 0 0 0 0 0 91
0 0 0 0 53 0 0
0 0 88 0 0 0
0 89 100 0 0
0 0 0 0
0 0 0
0 0
0
0 0 0 0 0 0 0 0 0 0 0 0 28 0 0 35 0 0 0 0 0 84 73 0 0 0 89 0
0 0 0 0 0 15 0 0 60 0 95 0 0 0 0 0 0 10 0 0 0 0 0 0 0 10 0
0 0 0 0 0 59 0 0 0 0 0 95 0 0 0 0 0 0 0 4 93 86 0 74 0 0
0 0 23 0 0 0 0 0 0 96 0 86 0 0 0 0 0 0 0 0 0 0 52 40 0
0 0 0 0 0 0 71 0 0 0 38 0 0 89 0 0 0 0 95 0 0 0 0 0
0 0 0 0 0 0 0 86 0 0 0 0 74 0 29 93 0 0 0 0 0 0 0
0 0 31 0 0 0 0 0 81 41 0 0 12 0 0 0 0 0 0 0 0 0
0 64 0 0 0 0 0 46 0 0 0 0 0 0 0 0 0 0 97 0 0
0 9 42 0 31 0 0 0 0 96 67 39 16 0 90 58 0 83 0 87
0 0 0 0 0 0 0 66 0 0 0 0 0 0 50 0 0 0 0
0 0 0 0 0 0 0 0 0 50 84 0 63 0 0 0 0 0
0 0 0 89 0 46 0 0 0 0 52 93 0 0 0 0 98
0 0 0 0 0 0 0 0 10 0 0 37 0 0 0 0
0 0 0 0 83 94 0 0 0 0 19 0 7 0 36
0 66 0 0 0 66 0 0 0 42 0 35 2 0
0 58 0 0 0 0 26 0 0 95 0 0 0
0 0 0 0 49 0 0 77 0 0 0 0
0 0 0 0 0 47 0 94 0 0 0
0 0 0 0 0 0 75 0 0 51
0 0 80 0 0 0 0 0 0
0 0 0 0 68 0 0 72
0 0 0 0 0 0 17
0 0 0 0 0 0
0 0 70 0 0
0 0 0 0
0 0 23
0 0
0
0 0 0 0 58 0 20 0 0 0 0 0 0 0 48 0 0 0 0 0 0 0 1 59 0 0 0
0 0 0 0 0 41 42 0 0 0 0 0 0 0 0 0 95 0 55 77 0 0 0 0 0 0
0 4 0 55 0 83 0 0 0 1 26 14 0 0 0 0 0 0 0 0 10 0 0 0 0
0 0 0 0 52 0 25 0 0 0 0 54 65 0 49 83 34 98 0 0 0 0 0 0
0 0 0 0 82 0 15 0 7 0 0 0 0 68 0 0 0 0 0 85 0 0 0
0 33 17 0 0 0 0 0 0 0 0 0 0 39 0 70 55 0 0 0 0 0
0 0 0 37 12 0 0 0 0 0 82 0 0 0 93 0 0 80 0 0 0
0 0 0 0 0 0 65 0 0 0 0 6 0 0 0 0 70 4 0 0
0 0 0 0 0 0 0 33 0 0 0 0 0 76 0 0 0 0 21
0 10 0 0 51 40 0 0 0 0 0 0 0 0 59 0 0 0
0 0 0 0 71 44 0 0 0 0 0 0 0 0 0 0 0
0 0 0 0 0 0 0 0 0 0 0 0 0 0 0 0
0 0 0 93 0 0 0 0 52 0 42 0 0 0 0
0 0 0 0 0 4 0 0 0 0 64 89 0 0
0 0 0 0 0 0 0 0 0 0 0 0 74
0 0 0 0 0 0 28 0 0 0 0 74
0 32 93 0 34 0 66 0 0 0 0
0 0 0 0 0 76 0 96 0 0
0 0 0 0 0 0 0 95 58
0 90 0 0 0 0 0 0
0 18 82 69 0 0 0
0 0 0 0 9 0
0 0 0 83 0
0 94 0 0
0 0 0
0 0
0
0 24 0 0 84 6 0 0 0 65 0 0 0 69 0 15 0 0 0 0 0 0 0 6 0 0
0 0 63 0 0 0 0 26 0 83 0 0 0 10 0 0 0 0 0 0 0 0 0 0 0
0 0 0 0 0 10 0 71 47 0 0 0 0 0 0 0 12 10 77 97 0 78 54 73
0 13 0 0 0 7 85 0 0 75 0 0 0 0 0 0 0 0 0 0 60 0 0
0 0 0 0 0 26 47 0 0 0 0 0 0 0 0 0 4 0 65 50 0 16
0 0 0 0 0 0 0 0 0 0 61 85 0 0 0 58 0 0 0 0 0
0 0 0 0 0 0 0 41 0 0 22 0 40 0 0 0 0 0 72 0
0 0 42 0 0 0 36 0 0 98 0 0 0 62 0 0 0 0 62
0 33 0 3 0 0 0 0 0 0 0 0 0 0 0 0 0 83
0 0 0 0 0 0 63 13 0 0 0 21 21 0 0 3 0
0 0 0 0 16 0 0 62 0 0 0 81 0 22 0 0
0 18 0 0 0 0 0 0 0 0 0 86 0 0 0
0 0 31 0 0 0 91 0 0 0 0 0 0 0
0 0 0 0 0 0 0 0 0 0 0 0 0
0 0 0 94 0 0 0 0 0 35 0 0
0 0 0 75 0 0 5 0 0 0 27
0 0 0 0 0 14 0 0 0 0
0 0 0 0 0 0 0 43 0
0 68 0 29 0 0 0 0
0 0 31 0 0 0 0
0 0 0 0 0 0
0 0 16 79 67
0 0 0 0
0 0 23
0 0
0
0 91 0 42 62 0 0 0 0 0 0 0 22 0 0 0 0 0 0 0 25 0 0 0 0
0 0 0 0 58 50 0 0 0 59 0 29 0 81 0 37 0 27 96 0 0 0 0 0
0 0 0 67 0 0 0 0 0 0 74 0 0 53 0 96 8 64 0 0 0 0 58
0 0 0 0 0 2 0 4 100 0 0 74 0 0 79 82 79 0 0 0 79 0
0 68 0 0 0 0 31 70 0 0 80 0 0 0 0 0 0 0 0 0 0
0 0 0 0 0 78 0 0 0 0 1 0 0 0 24 0 0 0 0 0
0 0 9 26 66 0 0 0 80 0 2 0 0 97 0 48 0 27 53
0 0 0 0 0 0 0 0 79 0 13 30 52 0 0 52 0 0
0 0 0 98 34 2 74 0 0 0 0 0 0 0 0 24 8
0 43 0 0 0 0 0 0 0 0 92 0 0 0 0 2
0 0 0 0 42 0 3 0 0 67 0 0 0 0 0
0 0 0 0 0 0 0 0 0 0 0 58 0 0
0 0 0 29 0 0 0 0 0 0 0 60 82
0 62 0 0 0 88 0 0 0 25 97 0
0 0 40 0 0 40 23 0 21 0 64
0 0 0 78 16 33 0 0 0 0
0 0 0 0 0 0 0 0 54
0 0 0 0 0 0 0 0
0 0 0 97 80 0 0
0 0 0 74 0 57
0 0 40 0 0
0 0 0 0
0 51 53
0 0
0
0 0 0 0 0 0 51 0 0 0 0 32 0 0 0 0 84 0 0 0 0 0 0 0
0 0 83 0 0 14 0 82 0 0 0 0 93 0 43 0 82 0 79 0 20 70 0
0 0 39 0 0 0 0 0 0 0 0 0 0 4 0 0 0 0 0 0 75 0
0 0 0 0 0 74 0 96 0 35 0 0 0 0 0 0 0 0 42 0 0
0 0 0 0 0 0 92 0 0 65 0 0 0 0 0 0 0 0 0 5
0 0 0 0 57 32 0 0 91 0 0 0 0 100 0 0 0 11 0
0 0 0 0 0 0 0 0 85 0 0 0 0 0 89 94 0 0
0 0 0 0 0 0 0 0 0 0 0 0 0 0 79 17 0
0 0 0 2 0 0 0 61 0 0 58 0 0 0 0 0
0 0 0 0 40 18 0 64 97 0 0 0 0 0 0
0 29 0 0 0 0 0 92 37 0 0 0 0 0
0 0 20 0 0 0 48 0 0 0 0 0 0
0 0 35 0 0 0 52 61 0 0 54 0
0 34 0 0 0 52 0 0 1 0 97
0 99 0 0 40 0 0 0 0 2
0 0 0 59 0 0 0 40 0
0 0 0 0 0 0 0 0
0 0 92 0 0 0 30
0 0 0 0 0 0
0 0 0 65 0
0 0 0 70
0 0 62
0 0
0
0 0 0 0 0 0 0 0 48 0 0 0 0 0 0 0 0 0 0 6 0 0 0
0 0 0 0 0 0 0 0 0 0 25 0 0 60 0 0 0 90 0 0 0 28
0 48 21 81 0 0 56 0 35 0 52 0 0 32 0 0 0 0 30 0 0
0 0 0 0 31 98 0 86 0 0 0 23 0 7 0 23 0 14 0 0
0 0 0 0 0 80 0 0 0 0 0 0 0 56 94 0 62 0 0
0 0 0 77 0 9 0 0 0 0 0 0 0 0 0 92 70 0
0 0 0 0 0 0 0 0 0 0 43 0 0 0 0 0 58
0 0 0 0 0 0 0 0 0 0 0 0 0 0 78 42
0 54 89 17 0 0 0 0 0 0 57 0 92 0 0
0 0 0 0 0 76 26 0 0 0 13 0 0 0
0 18 0 5 0 74 0 0 0 0 0 0 0
0 0 0 37 16 0 0 53 0 0 0 0
0 0 0 0 0 85 16 0 0 0 0
0 0 0 23 0 10 69 21 20 0
0 0 0 85 0 0 81 0 0
0 0 0 0 0 44 0 0
0 0 0 13 91 0 67
0 0 0 0 0 0
0 47 0 28 0
0 0 0 0
0 0 0
0 13
0
0 0 0 0 0 0 0 0 64 0 96 51 0 0 0 0 0 27 0 0 63 28
0 0 51 0 91 27 0 0 0 30 41 0 33 0 75 64 0 51 0 0 43
0 0 0 0 0 0 0 0 59 90 0 0 0 0 0 20 0 0 0 68
0 0 0 0 0 0 0 0 11 0 11 0 0 0 0 0 0 0 0
0 0 0 0 0 0 0 0 0 3 0 0 7 0 0 0 0 0
0 0 60 0 0 0 0 0 4 0 87 0 0 0 55 0 94
0 0 30 0 0 0 0 0 0 0 0 0 41 50 0 0
0 10 0 48 4 0 0 17 0 0 30 0 0 0 0
0 0 50 0 0 0 2 0 0 73 0 97 7 0
0 0 51 89 0 0 0 31 0 12 59 0 19
0 0 72 96 0 0 0 79 0 0 77 0
0 0 0 4 0 0 0 0 0 0 98
0 0 0 0 0 0 0 0 0 0
0 0 0 0 0 0 0 19 0
0 22 21 0 24 0 0 12
0 0 0 0 0 0 0
0 0 0 0 0 0
0 66 0 18 0
0 0 0 0
0 0 20
0 64
0
0 26 0 14 4 0 0 0 0 0 0 81 0 0 0 0 0 99 0 97 0
0 0 0 67 20 0 33 0 70 0 0 0 86 0 0 0 0 0 0 20
0 21 0 0 0 89 9 0 0 0 0 0 0 0 13 0 0 0 39
0 0 0 0 51 0 48 0 0 0 60 0 0 0 0 0 0 33
0 0 79 3 0 0 5 0 0 0 0 29 0 0 57 0 0
0 2 51 0 0 0 0 11 0 0 31 0 0 0 0 0
0 0 0 0 0 0 0 0 0 81 100 0 0 0 0
0 0 74 17 0 0 0 0 0 91 0 85 0 68
0 0 0 0 0 0 0 0 0 33 0 0 61
0 0 0 0 0 57 0 0 70 0 0 0
0 89 0 0 84 0 0 0 0 39 0
0 0 0 0 0 0 0 0 0 0
0 0 0 0 0 0 0 0 0
0 0 75 34 37 62 47 0
0 0 0 0 100 0 88
0 0 0 0 0 0
0 97 0 33 97
0 0 72 0
0 0 0
0 58
0
0 0 0 0 0 0 0 98 0 0 53 98 0 0 0 0 0 14 0 0
0 0 0 0 0 31 0 0 0 0 75 81 0 0 0 0 0 25 62
0 0 0 0 0 0 0 0 0 79 0 0 0 0 77 0 0 0
0 0 0 46 0 9 7 8 0 0 0 0 0 0 0 0 0
0 0 0 0 0 71 61 0 54 0 0 0 0 0 93 96
0 0 43 0 48 46 0 24 0 0 0 0 37 0 57
0 0 0 0 0 0 0 0 0 0 0 0 0 0
0 64 0 0 0 76 0 0 0 0 0 10 0
0 0 68 0 72 0 87 0 0 0 0 0
0 0 0 84 0 0 0 11 0 0 0
0 31 0 0 50 0 0 0 66 0
0 0 0 0 0 0 88 0 0
0 0 0 0 18 0 0 66
0 68 0 0 0 0 0
0 0 0 0 83 0
0 96 37 45 10
0 0 0 69
0 0 0
0 0
0
0 55 0 0 0 0 46 0 0 0 0 48 0 74 0 0 0 0 20
0 13 0 0 0 0 0 60 0 0 0 0 0 0 0 0 0 0
0 0 0 49 0 0 15 0 100 66 0 0 0 0 28 0 17
0 24 0 84 0 0 0 64 0 0 34 0 67 0 22 0
0 0 0 0 0 0 0 0 23 24 0 50 0 0 0
0 0 0 0 0 23 54 0 0 61 0 51 0 0
0 0 0 5 87 0 0 0 86 0 0 0 0
0 0 82 0 37 0 0 0 26 9 0 0
0 0 0 0 0 0 29 0 0 54 49
0 38 0 0 0 0 79 25 0 0
0 0 22 75 0 98 80 6 0
0 54 0 0 0 0 0 8
0 0 0 0 0 0 0
0 0 0 0 0 0
0 0 0 53 0
0 50 0 0
0 47 22
0 0
0
0 0 0 87 0 0 0 44 0 0 0 47 0 0 57 0 46 0
0 0 55 0 0 72 0 17 0 0 0 30 0 79 0 0 0
0 58 0 0 96 0 0 0 16 0 0 0 0 0 0 0
0 0 78 0 0 0 0 0 0 0 79 0 38 0 0
0 0 0 0 0 0 0 0 0 0 0 0 0 0
0 0 0 0 0 0 0 0 28 68 81 0 99
0 0 16 0 15 0 0 45 0 0 76 0
0 0 0 0 0 84 0 83 0 0 0
0 15 61 0 0 0 0 0 0 0
0 0 0 0 0 0 0 98 0
0 0 17 0 61 0 70 0
0 0 0 77 0 0 0
0 0 31 0 2 0
0 0 87 92 56
0 0 91 0
0 0 28
0 78
0
0 0 0 79 0 0 0 81 81 0 68 0 0 0 0 53 0
0 0 0 0 0 0 0 0 0 75 0 0 0 0 0 0
0 8 0 0 83 0 33 0 0 0 0 0 0 0 27
0 0 0 7 0 49 0 45 5 0 0 54 0 0
0 0 0 0 0 0 43 0 0 0 0 0 0
0 0 0 61 0 0 0 0 0 0 0 0
0 0 0 24 91 0 26 0 0 0 0
0 0 0 0 13 0 0 0 70 0
0 6 0 5 0 20 0 0 0
0 0 0 0 95 0 0 84
0 90 0 0 0 5 0
0 0 0 0 0 0
0 25 94 1 0
0 0 0 0
0 61 0
0 0
0
0 0 0 0 0 0 0 0 0 0 89 98 70 0 0 95
0 0 76 0 56 0 0 3 10 0 0 0 0 0 2
0 0 6 0 0 0 0 0 0 26 45 57 0 0
0 92 0 0 0 0 0 48 0 12 0 0 0
0 0 0 70 0 0 8 0 0 0 0 0
0 0 34 0 0 0 0 0 58 0 0
0 4 0 46 0 84 39 0 0 0
0 0 0 0 0 0 45 0 57
0 0 0 0 0 0 0 55
0 0 71 0 0 0 0
0 36 0 26 0 9
0 0 96 0 0
0 0 0 0
0 0 40
0 43
0
0 64 0 0 0 0 0 0 0 0 17 0 52 0 0
0 98 0 0 10 0 0 25 18 0 0 0 0 13
0 0 0 0 0 0 0 0 0 0 78 0 0
0 17 76 0 0 0 0 86 43 0 0 0
0 0 0 0 0 0 0 0 24 0 5
0 0 0 37 0 40 0 32 0 0
0 77 0 0 20 0 0 19 60
0 0 0 0 0 0 0 0
0 60 0 0 0 28 0
0 0 0 5 0 0
0 0 0 0 0
0 78 10 50
0 0 97
0 0
0
0 0 80 0 0 59 0 73 0 0 73 0 0 0
0 0 0 0 0 48 0 0 0 0 0 68 0
0 38 20 0 51 55 0 15 46 0 0 0
0 87 0 69 5 0 0 0 0 0 74
0 0 0 22 0 0 37 93 0 0
0 45 0 51 0 38 36 0 98
0 0 0 0 0 60 0 0
0 0 0 0 0 0 51
0 0 0 0 0 0
0 90 0 0 0
0 83 56 0
0 0 15
0 0
0
0 0 61 0 0 69 0 0 23 0 0 0 0
0 23 0 47 0 7 0 0 0 0 94 0
0 0 50 0 0 94 0 81 0 0 89
0 12 0 0 0 0 0 0 45 0
0 70 0 0 0 0 0 0 0
0 0 0 0 90 0 68 0
0 0 0 62 0 0 0
0 2 0 48 97 9
0 47 0 4 0
0 0 53 0
0 0 0
0 20
0
0 0 0 0 0 61 54 0 0 0 0 0
0 0 0 17 0 56 89 0 13 0 93
0 0 0 0 0 1 0 0 32 0
0 0 85 0 45 0 0 0 0
0 28 0 23 12 100 87 0
0 0 0 0 0 0 0
0 0 0 0 0 0
0 61 0 0 53
0 0 0 0
0 89 3
0 0
0
0 0 14 0 0 60 89 0 0 0 0
0 0 0 0 0 0 0 0 14 0
0 0 0 0 0 0 5 0 1
0 3 0 0 0 0 0 0
0 0 29 0 53 0 64
0 0 0 0 0 0
0 85 0 0 0
0 0 0 0
0 0 0
0 0
0
0 0 0 39 0 0 0 0 0 0
0 0 0 0 71 9 0 0 0
0 0 36 0 0 90 0 31
0 0 0 0 32 0 24
0 18 0 0 0 50
0 0 6 0 0
0 0 0 0
0 0 0
0 0
0
0 0 0 0 98 0 0 66 97
0 0 0 0 80 0 0 0
0 45 94 0 0 0 0
0 0 0 0 0 11
0 0 0 84 18
0 0 0 0
0 0 0
0 0
0
0 0 0 0 0 36 0 0
0 0 1 0 0 56 0
0 72 0 0 0 0
0 0 0 0 82
0 0 0 80
0 0 76
0 0
0
0 0 0 0 0 53 75
0 0 0 0 19 23
0 0 0 1 0
0 56 0 0
0 0 20
0 0
0
0 0 0 0 49 0
0 79 0 0 0
0 0 73 0
0 0 0
0 0
0
0 0 0 19 0
0 0 0 0
0 0 43
0 0
0
0 0 0 0
0 0 17
0 0
0
0 0 0
0 0
0
0 0
0
0
5729 5537 4952 4486 5996 5034 5639 5665 5348 6031 5877 5582 4682 5787 4701 6102 5996 5202 5668 6083 5010 5589 5322 5608 5452 6732 5944 6334 4999 6075
260.9032258064516 370.53156565656565 159.17142857142858 118.13034891375906 334.14241486068113 198.09722222222223 344.4275568181818 118.07207989578811 144.96410256410257 191.36826923076922 407.06493506493507 1594.857142857143 115.76373626373626 317.26973684210526 250.71999999999997 1095.2307692307693 442.56190476190477 503.7972972972973 178.1219512195122 193.01826923076922 317.6630434782609 239.9093799682035 319.32000000000005 1034.8095238095239 154.42328874901654 363.375 864.5818181818181 266.4301587301587 454.45454545454544 297.93660287081343
